* ENCODING=ISO-8859-1
NAME          CPLEX
ROWS
 N  obj1    
 G  c1      
 G  c2      
 G  c3      
 G  c4      
 G  c5      
 G  c6      
 G  c7      
 G  c8      
 G  c9      
 G  c10     
 G  c11     
 G  c12     
 G  c13     
 G  c14     
 G  c15     
 G  c16     
 G  c17     
 G  c18     
 G  c19     
 G  c20     
 G  c21     
 G  c22     
 G  c23     
 G  c24     
 G  c25     
 G  c26     
 G  c27     
 G  c28     
 G  c29     
 G  c30     
COLUMNS
    MARK0000  'MARKER'                 'INTORG'
    x1        obj1                            1
    x1        c14                           475
    x1        c18                           307
    x1        c24                           188
    x2        obj1                            1
    x2        c2                            767
    x2        c7                            351
    x2        c12                           401
    x2        c26                           411
    x2        c27                           921
    x2        c29                           891
    x3        obj1                            1
    x3        c13                           760
    x3        c14                           366
    x3        c19                           625
    x3        c22                           867
    x4        obj1                            1
    x4        c8                            736
    x4        c9                            219
    x4        c13                           850
    x4        c16                           228
    x5        obj1                            1
    x5        c13                           178
    x5        c16                           485
    x5        c23                           592
    x6        obj1                            1
    x6        c2                            209
    x7        obj1                            1
    x7        c1                            184
    x7        c8                            143
    x7        c25                           225
    x8        obj1                            1
    x8        c11                           231
    x8        c15                           409
    x8        c18                           923
    x9        obj1                            1
    x9        c16                           718
    x9        c27                           418
    x9        c29                           754
    x10       obj1                            1
    x11       obj1                            1
    x11       c1                            812
    x11       c6                            601
    x11       c9                            719
    x11       c20                           760
    x11       c21                           114
    x11       c25                           806
    x11       c28                           169
    x12       obj1                            1
    x12       c10                           782
    x12       c24                           884
    x13       obj1                            1
    x13       c5                            178
    x13       c24                           470
    x13       c25                           818
    x14       obj1                            1
    x14       c17                           663
    x15       obj1                            1
    x15       c6                            940
    x15       c8                            846
    x15       c13                           822
    x15       c14                           560
    x15       c19                           227
    x15       c25                           357
    x16       obj1                            1
    x16       c3                            483
    x16       c13                           557
    x16       c14                           504
    x16       c20                           903
    x16       c22                           170
    x17       obj1                            1
    x17       c16                           288
    x18       obj1                            1
    x18       c20                           592
    x18       c25                           307
    x19       obj1                            1
    x19       c22                           878
    x19       c24                           452
    x20       obj1                            1
    x20       c1                            917
    x21       obj1                            1
    x21       c14                           957
    x21       c21                           774
    x22       obj1                            1
    x22       c5                            195
    x22       c8                            109
    x22       c13                           992
    x22       c22                           781
    x23       obj1                            1
    x23       c2                            908
    x23       c18                           789
    x23       c19                           528
    x23       c29                           713
    x24       obj1                            1
    x24       c7                            219
    x24       c10                           975
    x24       c11                           108
    x24       c22                           424
    x24       c23                           693
    x25       obj1                            1
    x25       c19                           275
    x26       obj1                            1
    x26       c9                            720
    x26       c11                           431
    x26       c16                           260
    x26       c18                           458
    x26       c20                           459
    x26       c26                           617
    x27       obj1                            1
    x27       c2                            904
    x27       c14                           205
    x27       c23                           115
    x27       c25                           348
    x27       c27                           698
    x28       obj1                            1
    x28       c9                            476
    x28       c10                           524
    x28       c11                           958
    x28       c19                           446
    x28       c26                           537
    x29       obj1                            1
    x29       c18                           714
    x29       c24                           456
    x30       obj1                            1
    x30       c7                            320
    x30       c9                            813
    x31       obj1                            1
    x31       c7                            499
    x31       c8                            564
    x31       c9                            769
    x31       c26                           641
    x32       obj1                            1
    x32       c13                           245
    x32       c14                           538
    x33       obj1                            1
    x33       c21                           188
    x33       c23                           899
    x33       c28                           846
    x34       obj1                            1
    x34       c2                            828
    x34       c9                            498
    x34       c18                           604
    x34       c27                           105
    x35       obj1                            1
    x35       c12                           435
    x35       c29                           129
    x36       obj1                            1
    x36       c3                            201
    x36       c11                           105
    x36       c26                           351
    x37       obj1                            1
    x37       c3                            735
    x37       c18                           693
    x37       c30                           557
    x38       obj1                            1
    x38       c1                            352
    x38       c14                           194
    x38       c17                           782
    x38       c18                           525
    x38       c26                          1000
    x39       obj1                            1
    x39       c7                            637
    x39       c13                           297
    x39       c24                           538
    x40       obj1                            1
    x40       c2                            651
    x41       obj1                            1
    x41       c11                           933
    x41       c21                           498
    x41       c23                           201
    x41       c26                           938
    x42       obj1                            1
    x42       c11                           638
    x42       c26                           982
    x43       obj1                            1
    x43       c5                            804
    x43       c27                           498
    x44       obj1                            1
    x44       c7                            274
    x44       c8                            415
    x44       c23                           134
    x45       obj1                            1
    x45       c29                           166
    x46       obj1                            1
    x46       c11                           761
    x46       c14                           616
    x46       c15                           267
    x46       c25                           962
    x46       c27                           359
    x47       obj1                            1
    x47       c5                            415
    x47       c8                            751
    x47       c9                            157
    x47       c30                           950
    x48       obj1                            1
    x48       c16                           441
    x48       c18                           827
    x49       obj1                            1
    x49       c7                            340
    x49       c15                           558
    x49       c22                           102
    x49       c24                           586
    x50       obj1                            1
    x50       c10                           205
    x50       c12                           767
    x50       c16                           370
    x50       c23                           755
    x50       c27                           845
    x50       c28                           343
    x51       obj1                            1
    x51       c13                           570
    x51       c17                           711
    x52       obj1                            1
    x52       c10                           197
    x52       c17                           816
    x53       obj1                            1
    x53       c2                            138
    x53       c4                            369
    x53       c12                           325
    x53       c17                           445
    x53       c27                           423
    x54       obj1                            1
    x54       c17                           313
    x54       c30                           120
    x55       obj1                            1
    x55       c3                            706
    x55       c4                            661
    x55       c20                           186
    x56       obj1                            1
    x56       c5                            918
    x56       c6                            982
    x56       c17                           354
    x56       c23                           134
    x56       c24                           292
    x56       c28                           838
    x57       obj1                            1
    x57       c6                            174
    x58       obj1                            1
    x58       c4                            952
    x58       c5                            583
    x58       c27                           139
    x59       obj1                            1
    x59       c7                            517
    x59       c30                           448
    x60       obj1                            1
    x60       c20                           634
    MARK0001  'MARKER'                 'INTEND'
RHS
    rhs       c1                           1133
    rhs       c2                           2203
    rhs       c3                           1063
    rhs       c4                            991
    rhs       c5                           1547
    rhs       c6                           1349
    rhs       c7                           1579
    rhs       c8                           1782
    rhs       c9                           2186
    rhs       c10                          1342
    rhs       c11                          2083
    rhs       c12                           964
    rhs       c13                          2636
    rhs       c14                          2208
    rhs       c15                           617
    rhs       c16                          1395
    rhs       c17                          2042
    rhs       c18                          2920
    rhs       c19                          1051
    rhs       c20                          1767
    rhs       c21                           787
    rhs       c22                          1611
    rhs       c23                          1762
    rhs       c24                          1933
    rhs       c25                          1912
    rhs       c26                          2739
    rhs       c27                          2203
    rhs       c28                          1098
    rhs       c29                          1327
    rhs       c30                          1038
BOUNDS
 LI bnd       x1        0
 LI bnd       x2        0
 LI bnd       x3        0
 LI bnd       x4        0
 LI bnd       x5        0
 LI bnd       x6        0
 LI bnd       x7        0
 LI bnd       x8        0
 LI bnd       x9        0
 LI bnd       x10       0
 LI bnd       x11       0
 LI bnd       x12       0
 LI bnd       x13       0
 LI bnd       x14       0
 LI bnd       x15       0
 LI bnd       x16       0
 LI bnd       x17       0
 LI bnd       x18       0
 LI bnd       x19       0
 LI bnd       x20       0
 LI bnd       x21       0
 LI bnd       x22       0
 LI bnd       x23       0
 LI bnd       x24       0
 LI bnd       x25       0
 LI bnd       x26       0
 LI bnd       x27       0
 LI bnd       x28       0
 LI bnd       x29       0
 LI bnd       x30       0
 LI bnd       x31       0
 LI bnd       x32       0
 LI bnd       x33       0
 LI bnd       x34       0
 LI bnd       x35       0
 LI bnd       x36       0
 LI bnd       x37       0
 LI bnd       x38       0
 LI bnd       x39       0
 LI bnd       x40       0
 LI bnd       x41       0
 LI bnd       x42       0
 LI bnd       x43       0
 LI bnd       x44       0
 LI bnd       x45       0
 LI bnd       x46       0
 LI bnd       x47       0
 LI bnd       x48       0
 LI bnd       x49       0
 LI bnd       x50       0
 LI bnd       x51       0
 LI bnd       x52       0
 LI bnd       x53       0
 LI bnd       x54       0
 LI bnd       x55       0
 LI bnd       x56       0
 LI bnd       x57       0
 LI bnd       x58       0
 LI bnd       x59       0
 LI bnd       x60       0
ENDATA
